332 288 289 290 276 277 278 279 282 281 280 287 286 285 284 283 334 335 333 336 337 338 339 340 341 343 344 345 346 364 363 362 347 348 349 350 351 352 415 416 414 413 417 419 418 410 411 412 356 355 353 354 357 358 359 361 360 401 402 403 400 404 405 406 407 399 397 398 370 369 368 365 367 366 342 329 328 327 326 325 324 323 322 373 372 371 396 395 394 393 391 392 390 389 388 387 408 409 384 383 385 386 382 425 424 423 422 421 420 426 427 428 429 431 430 432 433 434 435 436 438 437 3 2 1 4 0 5 573 572 571 466 467 468 469 465 464 463 462 461 460 459 458 457 456 455 454 439 443 444 445 442 446 447 381 380 379 378 377 376 375 374 315 314 316 321 320 319 317 318 305 306 304 307 303 301 302 508 507 506 504 505 308 309 310 313 312 311 451 450 448 449 441 440 453 452 499 500 501 498 502 503 517 516 515 514 513 509 510 511 512 527 528 529 490 491 492 493 524 525 526 523 522 521 520 518 519 497 496 470 495 494 471 472 473 474 570 569 568 20 19 18 17 8 7 6 9 10 11 16 15 14 13 12 23 21 24 25 26 27 567 28 29 22 31 30 32 36 37 38 35 33 34 558 559 550 560 561 562 563 565 566 564 549 548 551 101 102 98 99 100 552 553 554 555 556 557 41 40 39 42 43 44 45 46 47 48 49 54 53 55 56 83 82 57 58 59 81 80 79 61 60 63 62 64 76 77 78 88 89 90 87 86 85 84 51 52 50 91 92 93 94 97 96 95 118 119 120 121 117 122 123 71 72 73 74 75 65 66 67 68 70 69 124 125 126 127 128 129 130 131 132 133 134 135 136 137 138 139 140 141 151 150 149 152 148 147 142 143 144 146 145 158 157 159 156 155 153 154 164 165 203 204 202 208 207 206 205 198 199 200 201 166 167 163 162 160 161 168 169 171 170 172 175 174 173 108 109 110 111 112 113 114 115 116 106 105 104 103 107 542 541 543 544 547 546 545 478 477 479 480 476 475 482 481 483 485 484 536 537 539 538 540 176 177 178 187 188 186 182 179 180 181 183 185 184 197 196 195 194 209 210 211 212 213 214 215 216 217 223 224 222 221 220 218 219 193 192 191 190 226 225 189 227 228 229 230 231 533 488 534 535 487 486 489 532 531 530 233 232 234 235 236 237 240 239 238 246 247 245 244 243 242 241 248 249 250 251 252 254 253 255 256 257 300 299 258 259 260 261 262 263 264 265 266 298 297 296 270 269 268 267 271 272 273 274 275 292 291 293 294 295 330 331